NAME: cuum620.tsp
TYPE: TSP
COMMENT: User-generated TSP file
DIMENSION: 620
EDGE_WEIGHT_TYPE: EUC_2D
NODE_COORD_SECTION
1 369.0 346.0
2 528.0 190.0
3 42.0 158.0
4 293.0 594.0
5 244.0 386.0
6 517.0 559.0
7 269.0 397.0
8 240.0 78.0
9 81.0 273.0
10 313.0 597.0
11 351.0 207.0
12 346.0 375.0
13 427.0 253.0
14 32.0 612.0
15 233.0 581.0
16 170.0 357.0
17 7.0 208.0
18 284.0 1.0
19 10.0 134.0
20 383.0 234.0
21 264.0 68.0
22 123.0 567.0
23 416.0 616.0
24 16.0 210.0
25 108.0 323.0
26 159.0 422.0
27 600.0 13.0
28 545.0 286.0
29 405.0 69.0
30 494.0 261.0
31 510.0 65.0
32 608.0 612.0
33 404.0 501.0
34 159.0 207.0
35 52.0 50.0
36 42.0 313.0
37 460.0 440.0
38 583.0 430.0
39 436.0 527.0
40 81.0 252.0
41 427.0 399.0
42 58.0 38.0
43 91.0 362.0
44 425.0 277.0
45 268.0 582.0
46 39.0 213.0
47 429.0 477.0
48 500.0 160.0
49 204.0 266.0
50 444.0 137.0
51 470.0 538.0
52 209.0 499.0
53 566.0 343.0
54 382.0 329.0
55 497.0 601.0
56 247.0 520.0
57 557.0 374.0
58 349.0 89.0
59 612.0 329.0
60 289.0 362.0
61 341.0 162.0
62 600.0 400.0
63 375.0 587.0
64 568.0 355.0
65 369.0 543.0
66 241.0 224.0
67 271.0 367.0
68 217.0 307.0
69 8.0 82.0
70 620.0 585.0
71 283.0 160.0
72 95.0 531.0
73 199.0 112.0
74 222.0 490.0
75 467.0 25.0
76 289.0 310.0
77 130.0 6.0
78 489.0 510.0
79 34.0 116.0
80 531.0 534.0
81 107.0 464.0
82 427.0 256.0
83 363.0 309.0
84 345.0 24.0
85 346.0 208.0
86 42.0 233.0
87 535.0 262.0
88 436.0 341.0
89 182.0 233.0
90 392.0 390.0
91 513.0 322.0
92 588.0 451.0
93 576.0 70.0
94 590.0 158.0
95 607.0 202.0
96 576.0 495.0
97 547.0 362.0
98 267.0 272.0
99 52.0 16.0
100 599.0 44.0
101 115.0 37.0
102 45.0 573.0
103 508.0 302.0
104 560.0 556.0
105 615.0 608.0
106 572.0 311.0
107 503.0 11.0
108 537.0 217.0
109 566.0 87.0
110 414.0 38.0
111 520.0 490.0
112 183.0 284.0
113 97.0 410.0
114 236.0 274.0
115 546.0 331.0
116 6.0 376.0
117 448.0 162.0
118 284.0 268.0
119 476.0 507.0
120 41.0 176.0
121 230.0 339.0
122 394.0 103.0
123 327.0 91.0
124 36.0 444.0
125 120.0 540.0
126 420.0 222.0
127 91.0 603.0
128 226.0 154.0
129 494.0 455.0
130 477.0 391.0
131 337.0 494.0
132 308.0 122.0
133 519.0 154.0
134 541.0 613.0
135 371.0 237.0
136 521.0 474.0
137 423.0 22.0
138 88.0 557.0
139 254.0 150.0
140 291.0 49.0
141 224.0 507.0
142 3.0 405.0
143 593.0 130.0
144 258.0 554.0
145 254.0 368.0
146 202.0 109.0
147 94.0 14.0
148 307.0 239.0
149 475.0 445.0
150 594.0 455.0
151 193.0 143.0
152 411.0 551.0
153 469.0 139.0
154 175.0 70.0
155 490.0 184.0
156 49.0 384.0
157 29.0 21.0
158 344.0 89.0
159 206.0 351.0
160 388.0 602.0
161 579.0 413.0
162 88.0 255.0
163 238.0 563.0
164 320.0 413.0
165 97.0 66.0
166 492.0 595.0
167 552.0 412.0
168 448.0 69.0
169 304.0 273.0
170 167.0 52.0
171 14.0 516.0
172 132.0 79.0
173 527.0 420.0
174 246.0 447.0
175 385.0 114.0
176 542.0 68.0
177 84.0 349.0
178 300.0 209.0
179 70.0 198.0
180 441.0 504.0
181 217.0 28.0
182 361.0 522.0
183 563.0 571.0
184 381.0 321.0
185 266.0 138.0
186 405.0 78.0
187 499.0 586.0
188 262.0 157.0
189 598.0 516.0
190 77.0 259.0
191 56.0 260.0
192 465.0 351.0
193 57.0 208.0
194 617.0 454.0
195 274.0 185.0
196 269.0 211.0
197 517.0 216.0
198 86.0 617.0
199 354.0 500.0
200 355.0 484.0
201 226.0 440.0
202 126.0 117.0
203 344.0 501.0
204 404.0 17.0
205 385.0 65.0
206 69.0 213.0
207 74.0 51.0
208 393.0 60.0
209 424.0 387.0
210 143.0 609.0
211 567.0 537.0
212 389.0 73.0
213 396.0 427.0
214 549.0 281.0
215 28.0 448.0
216 56.0 398.0
217 454.0 346.0
218 235.0 538.0
219 190.0 507.0
220 368.0 175.0
221 259.0 204.0
222 191.0 433.0
223 312.0 281.0
224 592.0 326.0
225 76.0 355.0
226 460.0 240.0
227 204.0 303.0
228 320.0 164.0
229 355.0 276.0
230 504.0 402.0
231 231.0 379.0
232 315.0 391.0
233 312.0 400.0
234 459.0 530.0
235 83.0 424.0
236 595.0 307.0
237 292.0 34.0
238 414.0 521.0
239 606.0 307.0
240 76.0 277.0
241 124.0 60.0
242 473.0 203.0
243 11.0 157.0
244 86.0 266.0
245 511.0 207.0
246 449.0 515.0
247 273.0 595.0
248 162.0 506.0
249 286.0 162.0
250 203.0 26.0
251 299.0 81.0
252 319.0 527.0
253 609.0 254.0
254 522.0 81.0
255 216.0 231.0
256 42.0 249.0
257 101.0 468.0
258 94.0 380.0
259 502.0 489.0
260 372.0 109.0
261 610.0 605.0
262 333.0 83.0
263 343.0 333.0
264 49.0 412.0
265 82.0 556.0
266 69.0 496.0
267 439.0 295.0
268 16.0 387.0
269 212.0 341.0
270 562.0 283.0
271 102.0 366.0
272 208.0 574.0
273 103.0 365.0
274 126.0 11.0
275 124.0 140.0
276 347.0 94.0
277 551.0 353.0
278 389.0 190.0
279 385.0 112.0
280 157.0 15.0
281 370.0 534.0
282 600.0 324.0
283 72.0 129.0
284 439.0 17.0
285 231.0 445.0
286 111.0 344.0
287 574.0 164.0
288 382.0 523.0
289 385.0 475.0
290 413.0 232.0
291 70.0 531.0
292 581.0 609.0
293 575.0 485.0
294 166.0 508.0
295 279.0 100.0
296 240.0 270.0
297 384.0 58.0
298 44.0 584.0
299 516.0 27.0
300 19.0 436.0
301 60.0 122.0
302 557.0 431.0
303 343.0 381.0
304 520.0 261.0
305 545.0 152.0
306 492.0 352.0
307 399.0 276.0
308 224.0 333.0
309 163.0 317.0
310 142.0 192.0
311 554.0 168.0
312 311.0 462.0
313 567.0 604.0
314 619.0 105.0
315 55.0 332.0
316 336.0 606.0
317 579.0 362.0
318 543.0 45.0
319 157.0 45.0
320 139.0 3.0
321 128.0 259.0
322 399.0 355.0
323 33.0 231.0
324 603.0 305.0
325 61.0 206.0
326 567.0 405.0
327 428.0 608.0
328 281.0 255.0
329 494.0 592.0
330 249.0 442.0
331 596.0 542.0
332 548.0 489.0
333 527.0 307.0
334 24.0 431.0
335 620.0 434.0
336 126.0 536.0
337 486.0 16.0
338 9.0 369.0
339 495.0 30.0
340 420.0 337.0
341 391.0 159.0
342 120.0 70.0
343 266.0 267.0
344 157.0 29.0
345 550.0 251.0
346 486.0 168.0
347 493.0 330.0
348 342.0 305.0
349 603.0 613.0
350 96.0 52.0
351 610.0 525.0
352 587.0 545.0
353 63.0 460.0
354 21.0 313.0
355 536.0 357.0
356 340.0 26.0
357 235.0 597.0
358 347.0 175.0
359 551.0 200.0
360 257.0 538.0
361 34.0 18.0
362 96.0 86.0
363 160.0 199.0
364 188.0 137.0
365 578.0 2.0
366 47.0 13.0
367 168.0 528.0
368 266.0 271.0
369 26.0 264.0
370 373.0 585.0
371 178.0 291.0
372 2.0 375.0
373 163.0 271.0
374 322.0 578.0
375 554.0 438.0
376 373.0 26.0
377 51.0 514.0
378 38.0 523.0
379 40.0 467.0
380 216.0 467.0
381 620.0 124.0
382 15.0 486.0
383 615.0 265.0
384 1.0 361.0
385 439.0 173.0
386 171.0 561.0
387 609.0 241.0
388 9.0 308.0
389 88.0 223.0
390 337.0 41.0
391 284.0 137.0
392 260.0 233.0
393 2.0 515.0
394 205.0 486.0
395 104.0 420.0
396 275.0 555.0
397 601.0 75.0
398 314.0 154.0
399 390.0 186.0
400 608.0 468.0
401 84.0 245.0
402 545.0 584.0
403 63.0 480.0
404 89.0 315.0
405 612.0 271.0
406 411.0 447.0
407 163.0 442.0
408 152.0 347.0
409 519.0 336.0
410 314.0 13.0
411 570.0 361.0
412 273.0 331.0
413 143.0 300.0
414 462.0 608.0
415 484.0 534.0
416 167.0 577.0
417 415.0 488.0
418 421.0 75.0
419 167.0 468.0
420 76.0 110.0
421 534.0 354.0
422 278.0 29.0
423 585.0 195.0
424 314.0 47.0
425 258.0 488.0
426 244.0 92.0
427 297.0 433.0
428 355.0 551.0
429 41.0 237.0
430 617.0 454.0
431 162.0 276.0
432 95.0 211.0
433 614.0 252.0
434 158.0 162.0
435 598.0 512.0
436 342.0 318.0
437 444.0 445.0
438 521.0 188.0
439 542.0 473.0
440 245.0 14.0
441 276.0 489.0
442 292.0 22.0
443 172.0 395.0
444 262.0 66.0
445 43.0 452.0
446 511.0 579.0
447 343.0 57.0
448 342.0 197.0
449 179.0 241.0
450 607.0 264.0
451 382.0 462.0
452 37.0 245.0
453 414.0 304.0
454 67.0 158.0
455 312.0 261.0
456 156.0 560.0
457 23.0 194.0
458 476.0 84.0
459 617.0 582.0
460 42.0 261.0
461 17.0 28.0
462 608.0 510.0
463 211.0 503.0
464 154.0 455.0
465 481.0 523.0
466 521.0 448.0
467 394.0 500.0
468 103.0 351.0
469 228.0 15.0
470 170.0 351.0
471 392.0 17.0
472 148.0 492.0
473 227.0 603.0
474 534.0 240.0
475 227.0 185.0
476 26.0 347.0
477 134.0 193.0
478 267.0 275.0
479 84.0 359.0
480 168.0 494.0
481 417.0 88.0
482 273.0 516.0
483 370.0 399.0
484 238.0 286.0
485 357.0 66.0
486 439.0 558.0
487 384.0 494.0
488 218.0 35.0
489 415.0 570.0
490 565.0 340.0
491 420.0 106.0
492 347.0 507.0
493 344.0 77.0
494 6.0 36.0
495 11.0 596.0
496 341.0 341.0
497 309.0 221.0
498 143.0 539.0
499 542.0 142.0
500 311.0 34.0
501 194.0 219.0
502 134.0 315.0
503 121.0 337.0
504 437.0 420.0
505 223.0 12.0
506 406.0 553.0
507 22.0 294.0
508 446.0 181.0
509 27.0 204.0
510 539.0 614.0
511 145.0 480.0
512 554.0 152.0
513 390.0 191.0
514 127.0 479.0
515 610.0 319.0
516 349.0 589.0
517 560.0 89.0
518 8.0 169.0
519 28.0 379.0
520 205.0 99.0
521 556.0 375.0
522 398.0 141.0
523 195.0 340.0
524 21.0 367.0
525 535.0 532.0
526 529.0 402.0
527 431.0 56.0
528 572.0 30.0
529 105.0 490.0
530 102.0 542.0
531 215.0 267.0
532 62.0 510.0
533 98.0 412.0
534 294.0 380.0
535 58.0 229.0
536 406.0 20.0
537 51.0 199.0
538 357.0 457.0
539 619.0 383.0
540 176.0 272.0
541 70.0 130.0
542 113.0 457.0
543 570.0 273.0
544 429.0 581.0
545 577.0 275.0
546 422.0 545.0
547 71.0 518.0
548 571.0 387.0
549 40.0 352.0
550 591.0 460.0
551 516.0 484.0
552 20.0 309.0
553 592.0 452.0
554 496.0 67.0
555 457.0 422.0
556 612.0 568.0
557 187.0 13.0
558 515.0 29.0
559 369.0 410.0
560 571.0 264.0
561 72.0 3.0
562 22.0 304.0
563 341.0 328.0
564 184.0 79.0
565 533.0 69.0
566 278.0 78.0
567 343.0 499.0
568 136.0 569.0
569 44.0 290.0
570 81.0 436.0
571 85.0 561.0
572 575.0 269.0
573 76.0 116.0
574 338.0 209.0
575 132.0 558.0
576 579.0 72.0
577 485.0 308.0
578 604.0 139.0
579 243.0 461.0
580 364.0 390.0
581 174.0 212.0
582 517.0 12.0
583 356.0 334.0
584 534.0 98.0
585 323.0 570.0
586 580.0 252.0
587 502.0 454.0
588 169.0 44.0
589 6.0 552.0
590 136.0 364.0
591 376.0 222.0
592 144.0 455.0
593 363.0 396.0
594 457.0 139.0
595 135.0 475.0
596 117.0 340.0
597 409.0 538.0
598 572.0 342.0
599 196.0 15.0
600 418.0 91.0
601 276.0 11.0
602 604.0 390.0
603 254.0 383.0
604 456.0 134.0
605 109.0 185.0
606 593.0 243.0
607 312.0 592.0
608 606.0 341.0
609 86.0 580.0
610 51.0 466.0
611 235.0 77.0
612 64.0 279.0
613 312.0 375.0
614 493.0 91.0
615 467.0 333.0
616 611.0 533.0
617 600.0 450.0
618 469.0 371.0
619 122.0 613.0
620 143.0 132.0
EOF





